c defined variables: 6 15 23 28 32 41 45 54 58 66 71 75 83 87 92 96 100 109 113 122 126 130 138 143 147 151 160 164 168 177 181 190 194 203 217 224 231 235 239 246 250 271 275 279 280 284 298 305 309 313 320 324 331 335 348 352 359 369 373 377 384 388 395 399 406 413 426 429 430 433 434 435 436 439 440 441 442 445 446 447 448 451 452 453 454 457 458 459 460 461 462 465 466 467 468 469 470 473 474 475 476 477 478 481 482 483 484 485 486 489 491 492 493 494 498 499 500 503 504 505 506 507 508 513 514 515 516 519 520 521 522 523 524 525 526 529 530 531 532 533 534 535 536 539 540 541 542 543 544 545 546 549 550 551 552 553 554 555 556 560 561 562 564 565 566 567 570 571 572 573 574 575 576 577 581 582 583 585 586 587 588 591 592 593 594 595 596 597 598 601 602 603 605 606 607 608 609 610 613 614 615 616 617 618 619 620 621 622 625 626 627 629 630 631 632 633 634 637 638 639 640 641 642 643 644 645 646 649 650 651 652 654 655 656 657 658 659 660 665 666 667 668 669 670 671 672 673 677 678 679 680 681 683 684 685 686 687 688 689 690 695 696 697 698 699 700 702 703 704 705 706 707 708 709 712 
p cnf 2298 2683
a 394 398 365 323 319 334 327 338 330 344 341 351 347 412 262 253 249 245 74 78 65 69 52 61 48 57 39 44 121 134 376 372 358 259 355 362 53 62 70 79 91 104 108 117 270 368 419 380 402 267 274 278 207 202 405 409 185 176 198 189 155 142 172 159 26 35 13 18 22 31 1 4 9 676 701 256 304 316 383 287 283 290 297 293 301 312 308 206 201 193 184 197 188 171 158 180 175 40 49 5 10 2 27 36 14 19 216 220 213 210 230 238 223 227 234 242 112 107 103 90 95 99 82 86 125 116 391 416 387 141 150 146 154 120 129 133 137 167 163 0
e 3 7 8 11 12 16 17 20 21 24 25 29 30 33 34 37 38 42 43 46 47 50 51 55 56 59 60 63 64 67 68 72 73 76 77 80 81 84 85 88 89 93 94 97 98 101 102 105 106 110 111 114 115 118 119 123 124 127 128 131 132 135 136 139 140 144 145 148 149 152 153 156 157 161 162 165 166 169 170 173 174 178 179 182 183 186 187 191 192 195 196 199 200 204 205 208 209 211 212 214 215 218 219 221 222 225 226 228 229 232 233 236 237 240 241 243 244 247 248 251 252 254 255 257 258 260 261 264 265 266 268 269 272 273 276 277 281 282 285 286 288 289 291 292 294 295 296 299 300 302 303 306 307 310 311 314 315 317 318 321 322 325 326 328 329 332 333 336 337 339 340 342 343 345 346 349 350 353 354 356 357 360 361 363 364 366 367 370 371 374 375 378 379 381 382 385 386 389 390 392 393 396 397 400 401 403 404 407 408 410 411 414 415 417 418 420 421 422 423 424 427 428 431 432 437 438 443 444 449 450 455 456 463 464 471 472 479 480 487 488 490 495 496 501 502 509 510 512 517 518 527 528 537 538 547 548 557 558 563 568 569 578 579 584 589 590 599 600 604 611 612 623 624 628 635 636 647 648 653 661 662 664 674 675 682 691 692 694 710 711 6 15 23 28 32 41 45 54 58 66 71 75 83 87 92 96 100 109 113 122 126 130 138 143 147 151 160 164 168 177 181 190 194 203 217 224 231 235 239 246 250 271 275 279 280 284 298 305 309 313 320 324 331 335 348 352 359 369 373 377 384 388 395 399 406 413 426 429 430 433 434 435 436 439 440 441 442 445 446 447 448 451 452 453 454 457 458 459 460 461 462 465 466 467 468 469 470 473 474 475 476 477 478 481 482 483 484 485 486 489 491 492 493 494 498 499 500 503 504 505 506 507 508 513 514 515 516 519 520 521 522 523 524 525 526 529 530 531 532 533 534 535 536 539 540 541 542 543 544 545 546 549 550 551 552 553 554 555 556 560 561 562 564 565 566 567 570 571 572 573 574 575 576 577 581 582 583 585 586 587 588 591 592 593 594 595 596 597 598 601 602 603 605 606 607 608 609 610 613 614 615 616 617 618 619 620 621 622 625 626 627 629 630 631 632 633 634 637 638 639 640 641 642 643 644 645 646 649 650 651 652 654 655 656 657 658 659 660 665 666 667 668 669 670 671 672 673 677 678 679 680 681 683 684 685 686 687 688 689 690 695 696 697 698 699 700 702 703 704 705 706 707 708 709 712 2024 2025 2026 2027 2028 2029 2030 2031 2032 2033 2034 2035 2036 2037 2038 2039 2040 2041 2042 2043 2044 2045 2046 2047 2048 2049 2050 2051 2052 2053 2054 2055 2056 2057 2058 2059 2060 2061 2062 2063 2064 2065 2066 2067 2068 2069 2070 2071 2072 2073 2074 2075 2076 2077 2078 2079 2080 2081 2082 2083 2084 2085 2086 2087 2088 2089 2090 2091 2092 2093 2094 2095 2096 2097 2098 2099 2100 2101 2102 2103 2104 2105 2106 2107 2108 2109 2110 2111 2112 2113 2114 2115 2116 2117 2118 2119 2120 2121 2122 2123 2124 2125 2126 2127 2128 2129 2130 2131 2132 2133 2134 2135 2136 2137 2138 2139 2140 2141 2142 2143 2144 2145 2146 2147 2148 2149 2150 2151 2152 2153 2154 2155 2156 2157 2158 2159 2160 2161 2162 2163 2164 2165 2166 2167 2168 2169 2170 2171 2172 2173 2174 2175 2176 2177 2178 2179 2180 2181 2182 2183 2184 2185 2186 2187 2188 2189 2190 2191 2192 2193 2194 2195 2196 2197 2198 2199 2200 2201 2202 2203 2204 2205 2206 2207 2208 2209 2210 2211 2212 2213 2214 2215 2216 2217 2218 2219 2220 2221 2222 2223 2224 2225 2226 2227 2228 2229 2230 2231 2232 2233 2234 2235 2236 2237 2238 2239 2240 2241 2242 2243 2244 2245 2246 2247 2248 2249 2250 2251 2252 2253 2254 2255 2256 2257 2258 2259 2260 2261 2262 2263 2264 2265 2266 2267 2268 2269 2270 2271 2272 2273 2274 2275 2276 2277 2278 2279 2280 2281 2282 2283 2284 2285 2286 2287 2288 2289 2290 2291 2292 2293 2294 2295 2296 2297 2298 0
d 693 701 419 0
d 425 5 213 0
d 497 287 278 0
d 263 259 256 0
d 559 338 341 0
d 511 104 301 0
d 663 412 409 0
d 580 355 362 0
2025 -6 0
-2025 6 0
2026 -15 0
-2026 15 0
2027 -23 0
-2027 23 0
2028 -28 0
-2028 28 0
2029 -32 0
-2029 32 0
2030 -41 0
-2030 41 0
2031 -45 0
-2031 45 0
2032 -54 0
-2032 54 0
2033 -58 0
-2033 58 0
2034 -66 0
-2034 66 0
2035 -71 0
-2035 71 0
2036 -75 0
-2036 75 0
2037 -83 0
-2037 83 0
2038 -87 0
-2038 87 0
2039 -92 0
-2039 92 0
2040 -96 0
-2040 96 0
2041 -100 0
-2041 100 0
2042 -109 0
-2042 109 0
2043 -113 0
-2043 113 0
2044 -122 0
-2044 122 0
2045 -126 0
-2045 126 0
2046 -130 0
-2046 130 0
2047 -138 0
-2047 138 0
2048 -143 0
-2048 143 0
2049 -147 0
-2049 147 0
2050 -151 0
-2050 151 0
2051 -160 0
-2051 160 0
2052 -164 0
-2052 164 0
2053 -168 0
-2053 168 0
2054 -177 0
-2054 177 0
2055 -181 0
-2055 181 0
2056 -190 0
-2056 190 0
2057 -194 0
-2057 194 0
2058 -203 0
-2058 203 0
2059 -217 0
-2059 217 0
2060 -224 0
-2060 224 0
2061 -231 0
-2061 231 0
2062 -235 0
-2062 235 0
2063 -239 0
-2063 239 0
2064 -246 0
-2064 246 0
2065 -250 0
-2065 250 0
2066 -271 0
-2066 271 0
2067 -275 0
-2067 275 0
2068 -279 0
-2068 279 0
2069 -280 0
-2069 280 0
2070 -284 0
-2070 284 0
2071 -298 0
-2071 298 0
2072 -305 0
-2072 305 0
2073 -309 0
-2073 309 0
2074 -313 0
-2074 313 0
2075 -320 0
-2075 320 0
2076 -324 0
-2076 324 0
2077 -331 0
-2077 331 0
2078 -335 0
-2078 335 0
2079 -348 0
-2079 348 0
2080 -352 0
-2080 352 0
2081 -359 0
-2081 359 0
2082 -369 0
-2082 369 0
2083 -373 0
-2083 373 0
2084 -377 0
-2084 377 0
2085 -384 0
-2085 384 0
2086 -388 0
-2086 388 0
2087 -395 0
-2087 395 0
2088 -399 0
-2088 399 0
2089 -406 0
-2089 406 0
2090 -413 0
-2090 413 0
2091 -426 0
-2091 426 0
2092 -429 0
-2092 429 0
2093 -430 0
-2093 430 0
2094 -433 0
-2094 433 0
2095 -434 0
-2095 434 0
2096 -435 0
-2096 435 0
2097 -436 0
-2097 436 0
2098 -439 0
-2098 439 0
2099 -440 0
-2099 440 0
2100 -441 0
-2100 441 0
2101 -442 0
-2101 442 0
2102 -445 0
-2102 445 0
2103 -446 0
-2103 446 0
2104 -447 0
-2104 447 0
2105 -448 0
-2105 448 0
2106 -451 0
-2106 451 0
2107 -452 0
-2107 452 0
2108 -453 0
-2108 453 0
2109 -454 0
-2109 454 0
2110 -457 0
-2110 457 0
2111 -458 0
-2111 458 0
2112 -459 0
-2112 459 0
2113 -460 0
-2113 460 0
2114 -461 0
-2114 461 0
2115 -462 0
-2115 462 0
2116 -465 0
-2116 465 0
2117 -466 0
-2117 466 0
2118 -467 0
-2118 467 0
2119 -468 0
-2119 468 0
2120 -469 0
-2120 469 0
2121 -470 0
-2121 470 0
2122 -473 0
-2122 473 0
2123 -474 0
-2123 474 0
2124 -475 0
-2124 475 0
2125 -476 0
-2125 476 0
2126 -477 0
-2126 477 0
2127 -478 0
-2127 478 0
2128 -481 0
-2128 481 0
2129 -482 0
-2129 482 0
2130 -483 0
-2130 483 0
2131 -484 0
-2131 484 0
2132 -485 0
-2132 485 0
2133 -486 0
-2133 486 0
2134 -489 0
-2134 489 0
2135 -491 0
-2135 491 0
2136 -492 0
-2136 492 0
2137 -493 0
-2137 493 0
2138 -494 0
-2138 494 0
2139 -498 0
-2139 498 0
2140 -499 0
-2140 499 0
2141 -500 0
-2141 500 0
2142 -503 0
-2142 503 0
2143 -504 0
-2143 504 0
2144 -505 0
-2144 505 0
2145 -506 0
-2145 506 0
2146 -507 0
-2146 507 0
2147 -508 0
-2147 508 0
2148 -513 0
-2148 513 0
2149 -514 0
-2149 514 0
2150 -515 0
-2150 515 0
2151 -516 0
-2151 516 0
2152 -519 0
-2152 519 0
2153 -520 0
-2153 520 0
2154 -521 0
-2154 521 0
2155 -522 0
-2155 522 0
2156 -523 0
-2156 523 0
2157 -524 0
-2157 524 0
2158 -525 0
-2158 525 0
2159 -526 0
-2159 526 0
2160 -529 0
-2160 529 0
2161 -530 0
-2161 530 0
2162 -531 0
-2162 531 0
2163 -532 0
-2163 532 0
2164 -533 0
-2164 533 0
2165 -534 0
-2165 534 0
2166 -535 0
-2166 535 0
2167 -536 0
-2167 536 0
2168 -539 0
-2168 539 0
2169 -540 0
-2169 540 0
2170 -541 0
-2170 541 0
2171 -542 0
-2171 542 0
2172 -543 0
-2172 543 0
2173 -544 0
-2173 544 0
2174 -545 0
-2174 545 0
2175 -546 0
-2175 546 0
2176 -549 0
-2176 549 0
2177 -550 0
-2177 550 0
2178 -551 0
-2178 551 0
2179 -552 0
-2179 552 0
2180 -553 0
-2180 553 0
2181 -554 0
-2181 554 0
2182 -555 0
-2182 555 0
2183 -556 0
-2183 556 0
2184 -560 0
-2184 560 0
2185 -561 0
-2185 561 0
2186 -562 0
-2186 562 0
2187 -564 0
-2187 564 0
2188 -565 0
-2188 565 0
2189 -566 0
-2189 566 0
2190 -567 0
-2190 567 0
2191 -570 0
-2191 570 0
2192 -571 0
-2192 571 0
2193 -572 0
-2193 572 0
2194 -573 0
-2194 573 0
2195 -574 0
-2195 574 0
2196 -575 0
-2196 575 0
2197 -576 0
-2197 576 0
2198 -577 0
-2198 577 0
2199 -581 0
-2199 581 0
2200 -582 0
-2200 582 0
2201 -583 0
-2201 583 0
2202 -585 0
-2202 585 0
2203 -586 0
-2203 586 0
2204 -587 0
-2204 587 0
2205 -588 0
-2205 588 0
2206 -591 0
-2206 591 0
2207 -592 0
-2207 592 0
2208 -593 0
-2208 593 0
2209 -594 0
-2209 594 0
2210 -595 0
-2210 595 0
2211 -596 0
-2211 596 0
2212 -597 0
-2212 597 0
2213 -598 0
-2213 598 0
2214 -601 0
-2214 601 0
2215 -602 0
-2215 602 0
2216 -603 0
-2216 603 0
2217 -605 0
-2217 605 0
2218 -606 0
-2218 606 0
2219 -607 0
-2219 607 0
2220 -608 0
-2220 608 0
2221 -609 0
-2221 609 0
2222 -610 0
-2222 610 0
2223 -613 0
-2223 613 0
2224 -614 0
-2224 614 0
2225 -615 0
-2225 615 0
2226 -616 0
-2226 616 0
2227 -617 0
-2227 617 0
2228 -618 0
-2228 618 0
2229 -619 0
-2229 619 0
2230 -620 0
-2230 620 0
2231 -621 0
-2231 621 0
2232 -622 0
-2232 622 0
2233 -625 0
-2233 625 0
2234 -626 0
-2234 626 0
2235 -627 0
-2235 627 0
2236 -629 0
-2236 629 0
2237 -630 0
-2237 630 0
2238 -631 0
-2238 631 0
2239 -632 0
-2239 632 0
2240 -633 0
-2240 633 0
2241 -634 0
-2241 634 0
2242 -637 0
-2242 637 0
2243 -638 0
-2243 638 0
2244 -639 0
-2244 639 0
-2245 -640 0
2245 640 0
2246 -641 0
-2246 641 0
2247 -642 0
-2247 642 0
2248 -643 0
-2248 643 0
2249 -644 0
-2249 644 0
2250 -645 0
-2250 645 0
2251 -646 0
-2251 646 0
2252 -649 0
-2252 649 0
2253 -650 0
-2253 650 0
2254 -651 0
-2254 651 0
2255 -652 0
-2255 652 0
2256 -654 0
-2256 654 0
2257 -655 0
-2257 655 0
2258 -656 0
-2258 656 0
2259 -657 0
-2259 657 0
2260 -658 0
-2260 658 0
2261 -659 0
-2261 659 0
2262 -660 0
-2262 660 0
2263 -665 0
-2263 665 0
2264 -666 0
-2264 666 0
2265 -667 0
-2265 667 0
2266 -668 0
-2266 668 0
2267 -669 0
-2267 669 0
2268 -670 0
-2268 670 0
2269 -671 0
-2269 671 0
2270 -672 0
-2270 672 0
2271 -673 0
-2271 673 0
2272 -677 0
-2272 677 0
2273 -678 0
-2273 678 0
2274 -679 0
-2274 679 0
2275 -680 0
-2275 680 0
2276 -681 0
-2276 681 0
2277 -683 0
-2277 683 0
2278 -684 0
-2278 684 0
2279 -685 0
-2279 685 0
2280 -686 0
-2280 686 0
2281 -687 0
-2281 687 0
2282 -688 0
-2282 688 0
2283 -689 0
-2283 689 0
2284 -690 0
-2284 690 0
2285 -695 0
-2285 695 0
2286 -696 0
-2286 696 0
2287 -697 0
-2287 697 0
2288 -698 0
-2288 698 0
2289 -699 0
-2289 699 0
2290 -700 0
-2290 700 0
2291 -702 0
-2291 702 0
2292 -703 0
-2292 703 0
2293 -704 0
-2293 704 0
2294 -705 0
-2294 705 0
2295 -706 0
-2295 706 0
2296 -707 0
-2296 707 0
2297 -708 0
-2297 708 0
2298 -709 0
-2298 709 0
2024 -712 0
-2024 712 0
712 0
-712 421 711 0
-421 418 -420 0
-418 415 -417 0
-415 411 -414 0
-411 408 -410 0
-408 404 -407 0
-404 401 -403 0
-401 397 -400 0
-397 393 -396 0
-393 390 -392 0
-390 386 -389 0
-386 382 -385 0
-382 379 -381 0
-379 375 -378 0
-375 371 -374 0
-371 367 -370 0
-367 364 -366 0
-364 361 -363 0
-361 357 -360 0
-357 354 -356 0
-354 350 -353 0
-350 346 -349 0
-346 343 -345 0
-343 340 -342 0
-340 337 -339 0
-337 333 -336 0
-333 329 -332 0
-329 326 -328 0
-326 322 -325 0
-322 318 -321 0
-318 315 -317 0
-315 311 -314 0
-311 307 -310 0
-307 303 -306 0
-303 300 -302 0
-300 296 -299 0
-296 292 -295 0
-292 289 -291 0
-289 286 -288 0
-286 282 -285 0
-282 277 -281 0
-277 273 -276 0
-273 269 -272 0
-269 266 -268 0
-266 261 -265 0
-261 258 -260 0
-258 255 -257 0
-255 252 -254 0
-252 248 -251 0
-248 244 -247 0
-244 241 -243 0
-241 237 -240 0
-237 233 -236 0
-233 229 -232 0
-229 226 -228 0
-226 222 -225 0
-222 219 -221 0
-219 215 -218 0
-215 212 -214 0
-212 209 -211 0
-209 205 -208 0
-205 200 -204 0
-200 196 -199 0
-196 192 -195 0
-192 187 -191 0
-187 183 -186 0
-183 179 -182 0
-179 174 -178 0
-174 170 -173 0
-170 166 -169 0
-166 162 -165 0
-162 157 -161 0
-157 153 -156 0
-153 149 -152 0
-149 145 -148 0
-145 140 -144 0
-140 136 -139 0
-136 132 -135 0
-132 128 -131 0
-128 124 -127 0
-124 119 -123 0
-119 115 -118 0
-115 111 -114 0
-111 106 -110 0
-106 102 -105 0
-102 98 -101 0
-98 94 -97 0
-94 89 -93 0
-89 85 -88 0
-85 81 -84 0
-81 77 -80 0
-77 73 -76 0
-73 68 -72 0
-68 64 -67 0
-64 60 -63 0
-60 56 -59 0
-56 51 -55 0
-51 47 -50 0
-47 43 -46 0
-43 38 -42 0
-38 34 -37 0
-34 30 -33 0
-30 25 -29 0
-25 21 -24 0
-21 17 -20 0
-17 12 -16 0
-12 8 -11 0
-8 -3 -7 0
1 -2 3 0
-1 2 3 0
4 6 7 0
-4 -6 7 0
-1 5 6 0
-6 1 0
-6 -5 0
9 -10 11 0
-9 10 11 0
13 15 16 0
-13 -15 16 0
-9 14 15 0
-15 9 0
-15 -14 0
18 -19 20 0
-18 19 20 0
22 23 24 0
-22 -23 24 0
-4 -13 23 0
-23 4 0
-23 13 0
26 28 29 0
-26 -28 29 0
-18 27 28 0
-28 18 0
-28 -27 0
31 32 33 0
-31 -32 33 0
-13 -26 32 0
-32 13 0
-32 26 0
35 -36 37 0
-35 36 37 0
39 41 42 0
-39 -41 42 0
-35 40 41 0
-41 35 0
-41 -40 0
44 45 46 0
-44 -45 46 0
-26 -39 45 0
-45 26 0
-45 39 0
48 -49 50 0
-48 49 50 0
52 54 55 0
-52 -54 55 0
-48 53 54 0
-54 48 0
-54 -53 0
57 58 59 0
-57 -58 59 0
-39 -52 58 0
-58 39 0
-58 52 0
61 -62 63 0
-61 62 63 0
65 66 67 0
-65 -66 67 0
-22 -44 66 0
-66 22 0
-66 44 0
69 71 72 0
-69 -71 72 0
-61 70 71 0
-71 61 0
-71 -70 0
74 75 76 0
-74 -75 76 0
-31 -57 75 0
-75 31 0
-75 57 0
78 -79 80 0
-78 79 80 0
82 83 84 0
-82 -83 84 0
-52 -69 83 0
-83 52 0
-83 69 0
86 87 88 0
-86 -87 88 0
-44 -82 87 0
-87 44 0
-87 82 0
90 92 93 0
-90 -92 93 0
-78 91 92 0
-92 78 0
-92 -91 0
95 96 97 0
-95 -96 97 0
-69 -90 96 0
-96 69 0
-96 90 0
99 100 101 0
-99 -100 101 0
-57 -95 100 0
-100 57 0
-100 95 0
103 -104 105 0
-103 104 105 0
107 109 110 0
-107 -109 110 0
-103 108 109 0
-109 103 0
-109 -108 0
112 113 114 0
-112 -113 114 0
-90 -107 113 0
-113 90 0
-113 107 0
116 -117 118 0
-116 117 118 0
120 122 123 0
-120 -122 123 0
-116 121 122 0
-122 116 0
-122 -121 0
125 126 127 0
-125 -126 127 0
-107 -120 126 0
-126 107 0
-126 120 0
129 130 131 0
-129 -130 131 0
-82 -112 130 0
-130 82 0
-130 112 0
133 -134 135 0
-133 134 135 0
137 138 139 0
-137 -138 139 0
-95 -125 138 0
-138 95 0
-138 125 0
141 143 144 0
-141 -143 144 0
-133 142 143 0
-143 133 0
-143 -142 0
146 147 148 0
-146 -147 148 0
-120 -141 147 0
-147 120 0
-147 141 0
150 151 152 0
-150 -151 152 0
-112 -146 151 0
-151 112 0
-151 146 0
154 -155 156 0
-154 155 156 0
158 160 161 0
-158 -160 161 0
-154 159 160 0
-160 154 0
-160 -159 0
163 164 165 0
-163 -164 165 0
-141 -158 164 0
-164 141 0
-164 158 0
167 168 169 0
-167 -168 169 0
-125 -163 168 0
-168 125 0
-168 163 0
171 -172 173 0
-171 172 173 0
175 177 178 0
-175 -177 178 0
-171 176 177 0
-177 171 0
-177 -176 0
180 181 182 0
-180 -181 182 0
-158 -175 181 0
-181 158 0
-181 175 0
184 -185 186 0
-184 185 186 0
188 190 191 0
-188 -190 191 0
-184 189 190 0
-190 184 0
-190 -189 0
193 194 195 0
-193 -194 195 0
-175 -188 194 0
-194 175 0
-194 188 0
197 -198 199 0
-197 198 199 0
201 203 204 0
-201 -203 204 0
-197 202 203 0
-203 197 0
-203 -202 0
206 -207 208 0
-206 207 208 0
210 -2 211 0
-210 2 211 0
213 210 214 0
-213 -210 214 0
216 217 218 0
-216 -217 218 0
-210 5 217 0
-217 210 0
-217 -5 0
220 -10 221 0
-220 10 221 0
223 224 225 0
-223 -224 225 0
-220 14 224 0
-224 220 0
-224 -14 0
227 -19 228 0
-227 19 228 0
230 231 232 0
-230 -231 232 0
-216 -223 231 0
-231 216 0
-231 223 0
234 235 236 0
-234 -235 236 0
-227 27 235 0
-235 227 0
-235 -27 0
238 239 240 0
-238 -239 240 0
-223 -234 239 0
-239 223 0
-239 234 0
242 -36 243 0
-242 36 243 0
245 246 247 0
-245 -246 247 0
-242 40 246 0
-246 242 0
-246 -40 0
249 250 251 0
-249 -250 251 0
-234 -245 250 0
-250 234 0
-250 245 0
253 -49 254 0
-253 49 254 0
256 253 257 0
-256 -253 257 0
259 -53 260 0
-259 53 260 0
262 264 265 0
-262 -264 265 0
-245 -263 264 0
-264 245 0
-264 263 0
267 -62 268 0
-267 62 268 0
270 271 272 0
-270 -271 272 0
-230 -249 271 0
-271 230 0
-271 249 0
274 275 276 0
-274 -275 276 0
-267 70 275 0
-275 267 0
-275 -70 0
278 280 281 0
-278 -280 281 0
-274 -279 280 0
-79 -216 279 0
-280 274 0
-280 279 0
-279 79 0
-279 216 0
283 284 285 0
-283 -284 285 0
-238 -262 284 0
-284 238 0
-284 262 0
287 283 288 0
-287 -283 288 0
290 -79 291 0
-290 79 291 0
293 294 295 0
-293 -294 295 0
-263 -274 294 0
-294 263 0
-294 274 0
297 298 299 0
-297 -298 299 0
-249 -293 298 0
-298 249 0
-298 293 0
301 216 302 0
-301 -216 302 0
304 305 306 0
-304 -305 306 0
-290 91 305 0
-305 290 0
-305 -91 0
308 309 310 0
-308 -309 310 0
-274 -304 309 0
-309 274 0
-309 304 0
312 313 314 0
-312 -313 314 0
-262 -308 313 0
-313 262 0
-313 308 0
316 -104 317 0
-316 104 317 0
319 320 321 0
-319 -320 321 0
-316 108 320 0
-320 316 0
-320 -108 0
323 324 325 0
-323 -324 325 0
-304 -319 324 0
-324 304 0
-324 319 0
327 -117 328 0
-327 117 328 0
330 331 332 0
-330 -331 332 0
-327 121 331 0
-331 327 0
-331 -121 0
334 335 336 0
-334 -335 336 0
-319 -330 335 0
-335 319 0
-335 330 0
338 293 339 0
-338 -293 339 0
341 323 342 0
-341 -323 342 0
344 -134 345 0
-344 134 345 0
347 348 349 0
-347 -348 349 0
-308 -334 348 0
-348 308 0
-348 334 0
351 352 353 0
-351 -352 353 0
-344 142 352 0
-352 344 0
-352 -142 0
355 323 356 0
-355 -323 356 0
358 359 360 0
-358 -359 360 0
-330 -351 359 0
-359 330 0
-359 351 0
362 358 363 0
-362 -358 363 0
365 -155 366 0
-365 155 366 0
368 369 370 0
-368 -369 370 0
-365 159 369 0
-369 365 0
-369 -159 0
372 373 374 0
-372 -373 374 0
-351 -368 373 0
-373 351 0
-373 368 0
376 377 378 0
-376 -377 378 0
-334 -372 377 0
-377 334 0
-377 372 0
380 -172 381 0
-380 172 381 0
383 384 385 0
-383 -384 385 0
-380 176 384 0
-384 380 0
-384 -176 0
387 388 389 0
-387 -388 389 0
-368 -383 388 0
-388 368 0
-388 383 0
391 -185 392 0
-391 185 392 0
394 395 396 0
-394 -395 396 0
-391 189 395 0
-395 391 0
-395 -189 0
398 399 400 0
-398 -399 400 0
-383 -394 399 0
-399 383 0
-399 394 0
402 -198 403 0
-402 198 403 0
405 406 407 0
-405 -406 407 0
-402 202 406 0
-406 402 0
-406 -202 0
409 405 410 0
-409 -405 410 0
412 413 414 0
-412 -413 414 0
-207 -216 413 0
-413 207 0
-413 216 0
416 -207 417 0
-416 207 417 0
419 216 420 0
-419 -216 420 0
-711 692 0
-711 710 0
-692 675 0
-692 691 0
-675 662 0
-675 674 0
-662 648 0
-662 661 0
-648 636 0
-648 647 0
-636 624 0
-636 635 0
-624 612 0
-624 623 0
-612 600 0
-612 611 0
-600 590 0
-600 599 0
-590 579 0
-590 589 0
-579 569 0
-579 578 0
-569 558 0
-569 568 0
-558 548 0
-558 557 0
-548 538 0
-548 547 0
-538 528 0
-538 537 0
-528 518 0
-528 527 0
-518 510 0
-518 517 0
-510 502 0
-510 509 0
-502 496 0
-502 501 0
-496 488 0
-496 495 0
-488 480 0
-488 487 0
-480 472 0
-480 479 0
-472 464 0
-472 471 0
-464 456 0
-464 463 0
-456 450 0
-456 455 0
-450 444 0
-450 449 0
-444 438 0
-444 443 0
-438 432 0
-438 437 0
-432 428 0
-432 431 0
-428 424 0
-428 427 0
-424 422 0
-424 423 0
-422 -2 2 0
-422 2 -2 0
-423 -2 2 0
-423 2 -2 0
-427 -425 426 0
-427 425 -426 0
-426 1 0
-426 5 0
-1 -5 426 0
-431 -429 430 0
-431 429 -430 0
-429 10 0
-429 216 0
-430 10 0
-430 4 0
-10 -216 429 0
-10 -4 430 0
-437 -434 436 0
-437 434 -436 0
-434 216 0
-434 433 0
-433 220 0
-433 14 0
-436 4 0
-436 435 0
-435 9 0
-435 14 0
-216 -433 434 0
-220 -14 433 0
-4 -435 436 0
-9 -14 435 0
-443 -440 442 0
-443 440 -442 0
-440 223 0
-440 439 0
-439 19 0
-439 216 0
-442 13 0
-442 441 0
-441 19 0
-441 4 0
-223 -439 440 0
-19 -216 439 0
-13 -441 442 0
-19 -4 441 0
-449 -446 448 0
-449 446 -448 0
-446 445 0
-446 230 0
-445 227 0
-445 27 0
-448 447 0
-448 22 0
-447 18 0
-447 27 0
-445 -230 446 0
-227 -27 445 0
-447 -22 448 0
-18 -27 447 0
-455 -452 454 0
-455 452 -454 0
-452 451 0
-452 238 0
-451 36 0
-451 216 0
-454 453 0
-454 31 0
-453 36 0
-453 4 0
-451 -238 452 0
-36 -216 451 0
-453 -31 454 0
-36 -4 453 0
-463 -459 462 0
-463 459 -462 0
-459 230 0
-459 458 0
-458 234 0
-458 457 0
-457 242 0
-457 40 0
-462 22 0
-462 461 0
-461 26 0
-461 460 0
-460 35 0
-460 40 0
-230 -458 459 0
-234 -457 458 0
-242 -40 457 0
-22 -461 462 0
-26 -460 461 0
-35 -40 460 0
-471 -467 470 0
-471 467 -470 0
-467 238 0
-467 466 0
-466 245 0
-466 465 0
-465 49 0
-465 216 0
-470 31 0
-470 469 0
-469 39 0
-469 468 0
-468 49 0
-468 4 0
-238 -466 467 0
-245 -465 466 0
-49 -216 465 0
-31 -469 470 0
-39 -468 469 0
-49 -4 468 0
-479 -475 478 0
-479 475 -478 0
-475 249 0
-475 474 0
-474 473 0
-474 230 0
-473 253 0
-473 53 0
-478 44 0
-478 477 0
-477 476 0
-477 22 0
-476 48 0
-476 53 0
-249 -474 475 0
-473 -230 474 0
-253 -53 473 0
-44 -477 478 0
-476 -22 477 0
-48 -53 476 0
-487 -483 486 0
-487 483 -486 0
-483 262 0
-483 482 0
-482 481 0
-482 238 0
-481 62 0
-481 216 0
-486 57 0
-486 485 0
-485 484 0
-485 31 0
-484 62 0
-484 4 0
-262 -482 483 0
-481 -238 482 0
-62 -216 481 0
-57 -485 486 0
-484 -31 485 0
-62 -4 484 0
-495 -491 494 0
-495 491 -494 0
-491 490 0
-491 270 0
-490 263 0
-490 489 0
-489 267 0
-489 70 0
-494 493 0
-494 65 0
-493 52 0
-493 492 0
-492 61 0
-492 70 0
-490 -270 491 0
-263 -489 490 0
-267 -70 489 0
-493 -65 494 0
-52 -492 493 0
-61 -70 492 0
-501 -497 500 0
-501 497 -500 0
-500 499 0
-500 74 0
-499 69 0
-499 498 0
-498 79 0
-498 4 0
-499 -74 500 0
-69 -498 499 0
-79 -4 498 0
-509 -505 508 0
-509 505 -508 0
-505 504 0
-505 297 0
-504 503 0
-504 230 0
-503 290 0
-503 91 0
-508 507 0
-508 86 0
-507 506 0
-507 22 0
-506 78 0
-506 91 0
-504 -297 505 0
-503 -230 504 0
-290 -91 503 0
-507 -86 508 0
-506 -22 507 0
-78 -91 506 0
-517 -513 516 0
-517 513 -516 0
-513 512 0
-513 312 0
-512 511 0
-512 238 0
-516 515 0
-516 99 0
-515 514 0
-515 31 0
-514 104 0
-514 4 0
-512 -312 513 0
-511 -238 512 0
-515 -99 516 0
-514 -31 515 0
-104 -4 514 0
-527 -522 526 0
-527 522 -526 0
-522 270 0
-522 521 0
-521 293 0
-521 520 0
-520 304 0
-520 519 0
-519 316 0
-519 108 0
-526 65 0
-526 525 0
-525 82 0
-525 524 0
-524 90 0
-524 523 0
-523 103 0
-523 108 0
-270 -521 522 0
-293 -520 521 0
-304 -519 520 0
-316 -108 519 0
-65 -525 526 0
-82 -524 525 0
-90 -523 524 0
-103 -108 523 0
-537 -532 536 0
-537 532 -536 0
-532 283 0
-532 531 0
-531 308 0
-531 530 0
-530 319 0
-530 529 0
-529 117 0
-529 216 0
-536 74 0
-536 535 0
-535 95 0
-535 534 0
-534 107 0
-534 533 0
-533 117 0
-533 4 0
-283 -531 532 0
-308 -530 531 0
-319 -529 530 0
-117 -216 529 0
-74 -535 536 0
-95 -534 535 0
-107 -533 534 0
-117 -4 533 0
-547 -542 546 0
-547 542 -546 0
-542 297 0
-542 541 0
-541 323 0
-541 540 0
-540 539 0
-540 230 0
-539 327 0
-539 121 0
-546 86 0
-546 545 0
-545 112 0
-545 544 0
-544 543 0
-544 22 0
-543 116 0
-543 121 0
-297 -541 542 0
-323 -540 541 0
-539 -230 540 0
-327 -121 539 0
-86 -545 546 0
-112 -544 545 0
-543 -22 544 0
-116 -121 543 0
-557 -552 556 0
-557 552 -556 0
-552 312 0
-552 551 0
-551 334 0
-551 550 0
-550 549 0
-550 238 0
-549 134 0
-549 216 0
-556 99 0
-556 555 0
-555 125 0
-555 554 0
-554 553 0
-554 31 0
-553 134 0
-553 4 0
-312 -551 552 0
-334 -550 551 0
-549 -238 550 0
-134 -216 549 0
-99 -555 556 0
-125 -554 555 0
-553 -31 554 0
-134 -4 553 0
-568 -563 567 0
-568 563 -567 0
-563 559 0
-563 562 0
-562 561 0
-562 270 0
-561 330 0
-561 560 0
-560 344 0
-560 142 0
-567 129 0
-567 566 0
-566 565 0
-566 65 0
-565 120 0
-565 564 0
-564 133 0
-564 142 0
-559 -562 563 0
-561 -270 562 0
-330 -560 561 0
-344 -142 560 0
-129 -566 567 0
-565 -65 566 0
-120 -564 565 0
-133 -142 564 0
-578 -573 577 0
-578 573 -577 0
-573 347 0
-573 572 0
-572 571 0
-572 283 0
-571 351 0
-571 570 0
-570 155 0
-570 216 0
-577 137 0
-577 576 0
-576 575 0
-576 74 0
-575 141 0
-575 574 0
-574 155 0
-574 4 0
-347 -572 573 0
-571 -283 572 0
-351 -570 571 0
-155 -216 570 0
-137 -576 577 0
-575 -74 576 0
-141 -574 575 0
-155 -4 574 0
-589 -584 588 0
-589 584 -588 0
-584 580 0
-584 583 0
-583 582 0
-583 297 0
-582 581 0
-582 230 0
-581 365 0
-581 159 0
-588 150 0
-588 587 0
-587 586 0
-587 86 0
-586 585 0
-586 22 0
-585 154 0
-585 159 0
-580 -583 584 0
-582 -297 583 0
-581 -230 582 0
-365 -159 581 0
-150 -587 588 0
-586 -86 587 0
-585 -22 586 0
-154 -159 585 0
-599 -594 598 0
-599 594 -598 0
-594 376 0
-594 593 0
-593 592 0
-593 312 0
-592 591 0
-592 238 0
-591 172 0
-591 216 0
-598 167 0
-598 597 0
-597 596 0
-597 99 0
-596 595 0
-596 31 0
-595 172 0
-595 4 0
-376 -593 594 0
-592 -312 593 0
-591 -238 592 0
-172 -216 591 0
-167 -597 598 0
-596 -99 597 0
-595 -31 596 0
-172 -4 595 0
-611 -605 610 0
-611 605 -610 0
-605 603 0
-605 604 0
-603 358 0
-603 602 0
-602 368 0
-602 601 0
-601 380 0
-601 176 0
-604 270 0
-604 559 0
-610 608 0
-610 609 0
-608 146 0
-608 607 0
-607 158 0
-607 606 0
-606 171 0
-606 176 0
-609 65 0
-609 129 0
-603 -604 605 0
-358 -602 603 0
-368 -601 602 0
-380 -176 601 0
-270 -559 604 0
-608 -609 610 0
-146 -607 608 0
-158 -606 607 0
-171 -176 606 0
-65 -129 609 0
-623 -617 622 0
-623 617 -622 0
-617 615 0
-617 616 0
-615 372 0
-615 614 0
-614 383 0
-614 613 0
-613 185 0
-613 216 0
-616 283 0
-616 347 0
-622 620 0
-622 621 0
-620 163 0
-620 619 0
-619 175 0
-619 618 0
-618 185 0
-618 4 0
-621 74 0
-621 137 0
-615 -616 617 0
-372 -614 615 0
-383 -613 614 0
-185 -216 613 0
-283 -347 616 0
-620 -621 622 0
-163 -619 620 0
-175 -618 619 0
-185 -4 618 0
-74 -137 621 0
-635 -629 634 0
-635 629 -634 0
-629 627 0
-629 628 0
-627 387 0
-627 626 0
-626 625 0
-626 230 0
-625 391 0
-625 189 0
-628 297 0
-628 580 0
-634 632 0
-634 633 0
-632 180 0
-632 631 0
-631 630 0
-631 22 0
-630 184 0
-630 189 0
-633 86 0
-633 150 0
-627 -628 629 0
-387 -626 627 0
-625 -230 626 0
-391 -189 625 0
-297 -580 628 0
-632 -633 634 0
-180 -631 632 0
-630 -22 631 0
-184 -189 630 0
-86 -150 633 0
-647 -641 646 0
-647 641 -646 0
-641 639 0
-641 640 0
-639 398 0
-639 638 0
-638 637 0
-638 238 0
-637 198 0
-637 216 0
-640 312 376 0
-646 644 0
-646 645 0
-644 193 0
-644 643 0
-643 642 0
-643 31 0
-642 198 0
-642 4 0
-645 99 0
-645 167 0
-639 -640 641 0
-398 -638 639 0
-637 -238 638 0
-198 -216 637 0
-312 376 640 0
312 -376 640 0
-312 -376 640 0
-644 -645 646 0
-193 -643 644 0
-642 -31 643 0
-198 -4 642 0
-99 -167 645 0
-661 -654 660 0
-661 654 -660 0
-654 651 0
-654 653 0
-651 650 0
-651 270 0
-650 394 0
-650 649 0
-649 402 0
-649 202 0
-653 559 0
-653 652 0
-652 358 0
-652 387 0
-660 657 0
-660 659 0
-657 656 0
-657 65 0
-656 188 0
-656 655 0
-655 197 0
-655 202 0
-659 129 0
-659 658 0
-658 146 0
-658 180 0
-651 -653 654 0
-650 -270 651 0
-394 -649 650 0
-402 -202 649 0
-559 -652 653 0
-358 -387 652 0
-657 -659 660 0
-656 -65 657 0
-188 -655 656 0
-197 -202 655 0
-129 -658 659 0
-146 -180 658 0
-674 -667 673 0
-674 667 -673 0
-667 664 0
-667 666 0
-664 663 0
-664 283 0
-666 347 0
-666 665 0
-665 372 0
-665 398 0
-673 670 0
-673 672 0
-670 669 0
-670 74 0
-669 201 0
-669 668 0
-668 207 0
-668 4 0
-672 137 0
-672 671 0
-671 163 0
-671 193 0
-664 -666 667 0
-663 -283 664 0
-347 -665 666 0
-372 -398 665 0
-670 -672 673 0
-669 -74 670 0
-201 -668 669 0
-207 -4 668 0
-137 -671 672 0
-163 -193 671 0
-691 -683 690 0
-691 683 -690 0
-683 679 0
-683 682 0
-679 678 0
-679 297 0
-678 677 0
-678 230 0
-677 416 0
-677 676 0
-682 580 0
-682 681 0
-681 387 0
-681 680 0
-680 394 0
-680 405 0
-690 686 0
-690 689 0
-686 685 0
-686 86 0
-685 684 0
-685 22 0
-684 206 0
-684 676 0
-689 150 0
-689 688 0
-688 180 0
-688 687 0
-687 188 0
-687 201 0
-679 -682 683 0
-678 -297 679 0
-677 -230 678 0
-416 -676 677 0
-580 -681 682 0
-387 -680 681 0
-394 -405 680 0
-686 -689 690 0
-685 -86 686 0
-684 -22 685 0
-206 -676 684 0
-150 -688 689 0
-180 -687 688 0
-188 -201 687 0
-710 -700 709 0
-710 700 -709 0
-700 695 0
-700 699 0
-695 694 0
-695 312 0
-694 693 0
-694 238 0
-699 376 0
-699 698 0
-698 398 0
-698 697 0
-697 405 0
-697 696 0
-696 416 0
-696 -676 0
-709 704 0
-709 708 0
-704 703 0
-704 99 0
-703 702 0
-703 31 0
-702 701 0
-702 4 0
-708 167 0
-708 707 0
-707 193 0
-707 706 0
-706 201 0
-706 705 0
-705 206 0
-705 -676 0
-695 -699 700 0
-694 -312 695 0
-693 -238 694 0
-376 -698 699 0
-398 -697 698 0
-405 -696 697 0
-416 676 696 0
-704 -708 709 0
-703 -99 704 0
-702 -31 703 0
-701 -4 702 0
-167 -707 708 0
-193 -706 707 0
-201 -705 706 0
-206 676 705 0
2024 0
1 -2025 0
-5 -2025 0
-1 5 2025 0
9 -2026 0
-14 -2026 0
-9 14 2026 0
13 -2027 0
4 -2027 0
-13 -4 2027 0
18 -2028 0
-27 -2028 0
-18 27 2028 0
26 -2029 0
13 -2029 0
-26 -13 2029 0
35 -2030 0
-40 -2030 0
-35 40 2030 0
39 -2031 0
26 -2031 0
-39 -26 2031 0
48 -2032 0
-53 -2032 0
-48 53 2032 0
52 -2033 0
39 -2033 0
-52 -39 2033 0
44 -2034 0
22 -2034 0
-44 -22 2034 0
61 -2035 0
-70 -2035 0
-61 70 2035 0
57 -2036 0
31 -2036 0
-57 -31 2036 0
69 -2037 0
52 -2037 0
-69 -52 2037 0
44 -2038 0
82 -2038 0
-44 -82 2038 0
78 -2039 0
-91 -2039 0
-78 91 2039 0
69 -2040 0
90 -2040 0
-69 -90 2040 0
57 -2041 0
95 -2041 0
-57 -95 2041 0
-108 -2042 0
103 -2042 0
108 -103 2042 0
107 -2043 0
90 -2043 0
-107 -90 2043 0
-121 -2044 0
116 -2044 0
121 -116 2044 0
107 -2045 0
120 -2045 0
-107 -120 2045 0
112 -2046 0
82 -2046 0
-112 -82 2046 0
95 -2047 0
125 -2047 0
-95 -125 2047 0
-142 -2048 0
133 -2048 0
142 -133 2048 0
141 -2049 0
120 -2049 0
-141 -120 2049 0
112 -2050 0
146 -2050 0
-112 -146 2050 0
-159 -2051 0
154 -2051 0
159 -154 2051 0
158 -2052 0
141 -2052 0
-158 -141 2052 0
125 -2053 0
163 -2053 0
-125 -163 2053 0
-176 -2054 0
171 -2054 0
176 -171 2054 0
158 -2055 0
175 -2055 0
-158 -175 2055 0
-189 -2056 0
184 -2056 0
189 -184 2056 0
188 -2057 0
175 -2057 0
-188 -175 2057 0
-202 -2058 0
197 -2058 0
202 -197 2058 0
-5 -2059 0
210 -2059 0
5 -210 2059 0
-14 -2060 0
220 -2060 0
14 -220 2060 0
216 -2061 0
223 -2061 0
-216 -223 2061 0
-27 -2062 0
227 -2062 0
27 -227 2062 0
223 -2063 0
234 -2063 0
-223 -234 2063 0
-40 -2064 0
242 -2064 0
40 -242 2064 0
245 -2065 0
234 -2065 0
-245 -234 2065 0
249 -2066 0
230 -2066 0
-249 -230 2066 0
-70 -2067 0
267 -2067 0
70 -267 2067 0
79 -2068 0
216 -2068 0
-79 -216 2068 0
274 -2069 0
279 -2069 0
-274 -279 2069 0
262 -2070 0
238 -2070 0
-262 -238 2070 0
249 -2071 0
293 -2071 0
-249 -293 2071 0
-91 -2072 0
290 -2072 0
91 -290 2072 0
274 -2073 0
304 -2073 0
-274 -304 2073 0
262 -2074 0
308 -2074 0
-262 -308 2074 0
-108 -2075 0
316 -2075 0
108 -316 2075 0
319 -2076 0
304 -2076 0
-319 -304 2076 0
327 -2077 0
-121 -2077 0
-327 121 2077 0
319 -2078 0
330 -2078 0
-319 -330 2078 0
334 -2079 0
308 -2079 0
-334 -308 2079 0
344 -2080 0
-142 -2080 0
-344 142 2080 0
330 -2081 0
351 -2081 0
-330 -351 2081 0
365 -2082 0
-159 -2082 0
-365 159 2082 0
351 -2083 0
368 -2083 0
-351 -368 2083 0
334 -2084 0
372 -2084 0
-334 -372 2084 0
380 -2085 0
-176 -2085 0
-380 176 2085 0
368 -2086 0
383 -2086 0
-368 -383 2086 0
-189 -2087 0
391 -2087 0
189 -391 2087 0
394 -2088 0
383 -2088 0
-394 -383 2088 0
402 -2089 0
-202 -2089 0
-402 202 2089 0
207 -2090 0
216 -2090 0
-207 -216 2090 0
1 -2091 0
5 -2091 0
-1 -5 2091 0
10 -2092 0
216 -2092 0
-10 -216 2092 0
4 -2093 0
10 -2093 0
-4 -10 2093 0
14 -2094 0
220 -2094 0
-14 -220 2094 0
216 -2095 0
433 -2095 0
-216 -433 2095 0
9 -2096 0
14 -2096 0
-9 -14 2096 0
4 -2097 0
435 -2097 0
-4 -435 2097 0
19 -2098 0
216 -2098 0
-19 -216 2098 0
223 -2099 0
439 -2099 0
-223 -439 2099 0
4 -2100 0
19 -2100 0
-4 -19 2100 0
13 -2101 0
441 -2101 0
-13 -441 2101 0
27 -2102 0
227 -2102 0
-27 -227 2102 0
230 -2103 0
445 -2103 0
-230 -445 2103 0
18 -2104 0
27 -2104 0
-18 -27 2104 0
22 -2105 0
447 -2105 0
-22 -447 2105 0
36 -2106 0
216 -2106 0
-36 -216 2106 0
238 -2107 0
451 -2107 0
-238 -451 2107 0
4 -2108 0
36 -2108 0
-4 -36 2108 0
31 -2109 0
453 -2109 0
-31 -453 2109 0
40 -2110 0
242 -2110 0
-40 -242 2110 0
234 -2111 0
457 -2111 0
-234 -457 2111 0
230 -2112 0
458 -2112 0
-230 -458 2112 0
35 -2113 0
40 -2113 0
-35 -40 2113 0
26 -2114 0
460 -2114 0
-26 -460 2114 0
22 -2115 0
461 -2115 0
-22 -461 2115 0
49 -2116 0
216 -2116 0
-49 -216 2116 0
245 -2117 0
465 -2117 0
-245 -465 2117 0
238 -2118 0
466 -2118 0
-238 -466 2118 0
4 -2119 0
49 -2119 0
-4 -49 2119 0
39 -2120 0
468 -2120 0
-39 -468 2120 0
31 -2121 0
469 -2121 0
-31 -469 2121 0
253 -2122 0
53 -2122 0
-253 -53 2122 0
230 -2123 0
473 -2123 0
-230 -473 2123 0
249 -2124 0
474 -2124 0
-249 -474 2124 0
48 -2125 0
53 -2125 0
-48 -53 2125 0
22 -2126 0
476 -2126 0
-22 -476 2126 0
44 -2127 0
477 -2127 0
-44 -477 2127 0
62 -2128 0
216 -2128 0
-62 -216 2128 0
238 -2129 0
481 -2129 0
-238 -481 2129 0
262 -2130 0
482 -2130 0
-262 -482 2130 0
62 -2131 0
4 -2131 0
-62 -4 2131 0
31 -2132 0
484 -2132 0
-31 -484 2132 0
57 -2133 0
485 -2133 0
-57 -485 2133 0
70 -2134 0
267 -2134 0
-70 -267 2134 0
270 -2135 0
490 -2135 0
-270 -490 2135 0
61 -2136 0
70 -2136 0
-61 -70 2136 0
52 -2137 0
492 -2137 0
-52 -492 2137 0
65 -2138 0
493 -2138 0
-65 -493 2138 0
79 -2139 0
4 -2139 0
-79 -4 2139 0
69 -2140 0
498 -2140 0
-69 -498 2140 0
74 -2141 0
499 -2141 0
-74 -499 2141 0
91 -2142 0
290 -2142 0
-91 -290 2142 0
230 -2143 0
503 -2143 0
-230 -503 2143 0
297 -2144 0
504 -2144 0
-297 -504 2144 0
78 -2145 0
91 -2145 0
-78 -91 2145 0
22 -2146 0
506 -2146 0
-22 -506 2146 0
86 -2147 0
507 -2147 0
-86 -507 2147 0
312 -2148 0
512 -2148 0
-312 -512 2148 0
104 -2149 0
4 -2149 0
-104 -4 2149 0
31 -2150 0
514 -2150 0
-31 -514 2150 0
99 -2151 0
515 -2151 0
-99 -515 2151 0
108 -2152 0
316 -2152 0
-108 -316 2152 0
304 -2153 0
519 -2153 0
-304 -519 2153 0
293 -2154 0
520 -2154 0
-293 -520 2154 0
270 -2155 0
521 -2155 0
-270 -521 2155 0
108 -2156 0
103 -2156 0
-108 -103 2156 0
90 -2157 0
523 -2157 0
-90 -523 2157 0
82 -2158 0
524 -2158 0
-82 -524 2158 0
65 -2159 0
525 -2159 0
-65 -525 2159 0
117 -2160 0
216 -2160 0
-117 -216 2160 0
319 -2161 0
529 -2161 0
-319 -529 2161 0
308 -2162 0
530 -2162 0
-308 -530 2162 0
283 -2163 0
531 -2163 0
-283 -531 2163 0
117 -2164 0
4 -2164 0
-117 -4 2164 0
107 -2165 0
533 -2165 0
-107 -533 2165 0
95 -2166 0
534 -2166 0
-95 -534 2166 0
74 -2167 0
535 -2167 0
-74 -535 2167 0
327 -2168 0
121 -2168 0
-327 -121 2168 0
230 -2169 0
539 -2169 0
-230 -539 2169 0
323 -2170 0
540 -2170 0
-323 -540 2170 0
297 -2171 0
541 -2171 0
-297 -541 2171 0
121 -2172 0
116 -2172 0
-121 -116 2172 0
22 -2173 0
543 -2173 0
-22 -543 2173 0
112 -2174 0
544 -2174 0
-112 -544 2174 0
86 -2175 0
545 -2175 0
-86 -545 2175 0
134 -2176 0
216 -2176 0
-134 -216 2176 0
238 -2177 0
549 -2177 0
-238 -549 2177 0
334 -2178 0
550 -2178 0
-334 -550 2178 0
312 -2179 0
551 -2179 0
-312 -551 2179 0
134 -2180 0
4 -2180 0
-134 -4 2180 0
31 -2181 0
553 -2181 0
-31 -553 2181 0
125 -2182 0
554 -2182 0
-125 -554 2182 0
99 -2183 0
555 -2183 0
-99 -555 2183 0
344 -2184 0
142 -2184 0
-344 -142 2184 0
330 -2185 0
560 -2185 0
-330 -560 2185 0
270 -2186 0
561 -2186 0
-270 -561 2186 0
142 -2187 0
133 -2187 0
-142 -133 2187 0
120 -2188 0
564 -2188 0
-120 -564 2188 0
65 -2189 0
565 -2189 0
-65 -565 2189 0
129 -2190 0
566 -2190 0
-129 -566 2190 0
155 -2191 0
216 -2191 0
-155 -216 2191 0
351 -2192 0
570 -2192 0
-351 -570 2192 0
283 -2193 0
571 -2193 0
-283 -571 2193 0
347 -2194 0
572 -2194 0
-347 -572 2194 0
155 -2195 0
4 -2195 0
-155 -4 2195 0
141 -2196 0
574 -2196 0
-141 -574 2196 0
74 -2197 0
575 -2197 0
-74 -575 2197 0
137 -2198 0
576 -2198 0
-137 -576 2198 0
365 -2199 0
159 -2199 0
-365 -159 2199 0
230 -2200 0
581 -2200 0
-230 -581 2200 0
297 -2201 0
582 -2201 0
-297 -582 2201 0
159 -2202 0
154 -2202 0
-159 -154 2202 0
22 -2203 0
585 -2203 0
-22 -585 2203 0
86 -2204 0
586 -2204 0
-86 -586 2204 0
150 -2205 0
587 -2205 0
-150 -587 2205 0
172 -2206 0
216 -2206 0
-172 -216 2206 0
238 -2207 0
591 -2207 0
-238 -591 2207 0
312 -2208 0
592 -2208 0
-312 -592 2208 0
376 -2209 0
593 -2209 0
-376 -593 2209 0
172 -2210 0
4 -2210 0
-172 -4 2210 0
31 -2211 0
595 -2211 0
-31 -595 2211 0
99 -2212 0
596 -2212 0
-99 -596 2212 0
167 -2213 0
597 -2213 0
-167 -597 2213 0
380 -2214 0
176 -2214 0
-380 -176 2214 0
368 -2215 0
601 -2215 0
-368 -601 2215 0
358 -2216 0
602 -2216 0
-358 -602 2216 0
603 -2217 0
604 -2217 0
-603 -604 2217 0
176 -2218 0
171 -2218 0
-176 -171 2218 0
158 -2219 0
606 -2219 0
-158 -606 2219 0
146 -2220 0
607 -2220 0
-146 -607 2220 0
65 -2221 0
129 -2221 0
-65 -129 2221 0
608 -2222 0
609 -2222 0
-608 -609 2222 0
185 -2223 0
216 -2223 0
-185 -216 2223 0
383 -2224 0
613 -2224 0
-383 -613 2224 0
372 -2225 0
614 -2225 0
-372 -614 2225 0
347 -2226 0
283 -2226 0
-347 -283 2226 0
615 -2227 0
616 -2227 0
-615 -616 2227 0
185 -2228 0
4 -2228 0
-185 -4 2228 0
175 -2229 0
618 -2229 0
-175 -618 2229 0
163 -2230 0
619 -2230 0
-163 -619 2230 0
74 -2231 0
137 -2231 0
-74 -137 2231 0
620 -2232 0
621 -2232 0
-620 -621 2232 0
189 -2233 0
391 -2233 0
-189 -391 2233 0
230 -2234 0
625 -2234 0
-230 -625 2234 0
387 -2235 0
626 -2235 0
-387 -626 2235 0
627 -2236 0
628 -2236 0
-627 -628 2236 0
189 -2237 0
184 -2237 0
-189 -184 2237 0
22 -2238 0
630 -2238 0
-22 -630 2238 0
180 -2239 0
631 -2239 0
-180 -631 2239 0
86 -2240 0
150 -2240 0
-86 -150 2240 0
632 -2241 0
633 -2241 0
-632 -633 2241 0
198 -2242 0
216 -2242 0
-198 -216 2242 0
238 -2243 0
637 -2243 0
-238 -637 2243 0
398 -2244 0
638 -2244 0
-398 -638 2244 0
-376 -2245 0
-312 -2245 0
376 312 2245 0
639 -2246 0
640 -2246 0
-639 -640 2246 0
198 -2247 0
4 -2247 0
-198 -4 2247 0
31 -2248 0
642 -2248 0
-31 -642 2248 0
193 -2249 0
643 -2249 0
-193 -643 2249 0
99 -2250 0
167 -2250 0
-99 -167 2250 0
644 -2251 0
645 -2251 0
-644 -645 2251 0
402 -2252 0
202 -2252 0
-402 -202 2252 0
394 -2253 0
649 -2253 0
-394 -649 2253 0
270 -2254 0
650 -2254 0
-270 -650 2254 0
358 -2255 0
387 -2255 0
-358 -387 2255 0
651 -2256 0
653 -2256 0
-651 -653 2256 0
202 -2257 0
197 -2257 0
-202 -197 2257 0
188 -2258 0
655 -2258 0
-188 -655 2258 0
65 -2259 0
656 -2259 0
-65 -656 2259 0
180 -2260 0
146 -2260 0
-180 -146 2260 0
129 -2261 0
658 -2261 0
-129 -658 2261 0
657 -2262 0
659 -2262 0
-657 -659 2262 0
398 -2263 0
372 -2263 0
-398 -372 2263 0
347 -2264 0
665 -2264 0
-347 -665 2264 0
664 -2265 0
666 -2265 0
-664 -666 2265 0
207 -2266 0
4 -2266 0
-207 -4 2266 0
201 -2267 0
668 -2267 0
-201 -668 2267 0
74 -2268 0
669 -2268 0
-74 -669 2268 0
193 -2269 0
163 -2269 0
-193 -163 2269 0
137 -2270 0
671 -2270 0
-137 -671 2270 0
670 -2271 0
672 -2271 0
-670 -672 2271 0
676 -2272 0
416 -2272 0
-676 -416 2272 0
230 -2273 0
677 -2273 0
-230 -677 2273 0
297 -2274 0
678 -2274 0
-297 -678 2274 0
394 -2275 0
405 -2275 0
-394 -405 2275 0
387 -2276 0
680 -2276 0
-387 -680 2276 0
679 -2277 0
682 -2277 0
-679 -682 2277 0
676 -2278 0
206 -2278 0
-676 -206 2278 0
22 -2279 0
684 -2279 0
-22 -684 2279 0
86 -2280 0
685 -2280 0
-86 -685 2280 0
201 -2281 0
188 -2281 0
-201 -188 2281 0
180 -2282 0
687 -2282 0
-180 -687 2282 0
150 -2283 0
688 -2283 0
-150 -688 2283 0
686 -2284 0
689 -2284 0
-686 -689 2284 0
312 -2285 0
694 -2285 0
-312 -694 2285 0
-676 -2286 0
416 -2286 0
676 -416 2286 0
405 -2287 0
696 -2287 0
-405 -696 2287 0
398 -2288 0
697 -2288 0
-398 -697 2288 0
376 -2289 0
698 -2289 0
-376 -698 2289 0
695 -2290 0
699 -2290 0
-695 -699 2290 0
4 -2291 0
701 -2291 0
-4 -701 2291 0
31 -2292 0
702 -2292 0
-31 -702 2292 0
99 -2293 0
703 -2293 0
-99 -703 2293 0
-676 -2294 0
206 -2294 0
676 -206 2294 0
201 -2295 0
705 -2295 0
-201 -705 2295 0
193 -2296 0
706 -2296 0
-193 -706 2296 0
167 -2297 0
707 -2297 0
-167 -707 2297 0
704 -2298 0
708 -2298 0
-704 -708 2298 0
